20	5
0	6	6	3	2	4	5	1
1	1	9
2	1	15
3	1	13
4	1	13
5	2	7	8
6	1	14
7	0
8	1	21
9	1	18
10	0
11	1	18
12	2	9	11
13	0
14	1	20
15	2	13	16
16	2	9	11
17	1	14
18	0
19	2	7	8
20	1	21
21	0
0	0	0	0	0	0	0
1	6	5	4	4	1	4
2	2	2	5	1	1	2
3	9	5	3	1	0	2
4	6	5	4	2	1	1
5	8	0	1	0	2	5
6	1	0	4	1	0	0
7	10	2	0	0	1	4
8	10	3	1	3	5	0
9	9	1	0	4	5	2
10	3	3	2	0	0	4
11	7	3	5	0	3	0
12	5	5	0	5	0	0
13	8	4	5	3	1	4
14	5	0	1	0	4	5
15	10	1	2	0	5	3
16	1	0	0	5	1	5
17	4	3	3	5	1	5
18	6	0	1	1	5	4
19	5	4	3	1	1	3
20	9	0	1	0	3	1
21	0	0	0	0	0	0
5	5	5	5	5
